job_count = 35 ;
duration = [|3, 9, 10, 3, 11, 8, 8|3, 3, 5, 14, 3, 7, 11|11, 9, 20, 12, 17, 12, 2|6, 9, 12, 16, 7, 4, 12|15, 10, 18, 12, 17, 5, 14|4, 17, 5, 18, 5, 11, 5|5, 21, 16, 10, 17, 13, 11|9, 13, 15, 8, 2, 4, 8|13, 18, 21, 17, 7, 5, 10|7, 18, 2, 18, 7, 10, 6|17, 19, 19, 18, 8, 10, 8|11, 10, 10, 14, 14, 9, 8|10, 8, 9, 2, 5, 5, 10|2, 13, 2, 5, 10, 5, 13|21, 11, 20, 5, 12, 3, 3|11, 22, 13, 12, 15, 3, 4|22, 12, 16, 15, 14, 5, 13|21, 8, 17, 3, 14, 4, 7|23, 13, 4, 12, 14, 9, 2|16, 14, 21, 9, 14, 9, 8|14, 6, 6, 10, 15, 11, 11|3, 9, 14, 6, 16, 16, 8|16, 2, 11, 18, 9, 4, 13|13, 11, 14, 13, 2, 10, 7|19, 7, 15, 5, 15, 13, 13|18, 22, 2, 18, 14, 14, 12|18, 7, 8, 11, 14, 2, 9|20, 22, 13, 16, 8, 7, 12|16, 6, 17, 3, 3, 14, 4|24, 2, 8, 18, 3, 15, 6|23, 20, 4, 8, 6, 5, 8|21, 6, 2, 6, 16, 6, 5|9, 19, 6, 13, 15, 8, 11|16, 5, 3, 6, 13, 6, 4|5, 3, 8, 18, 13, 5, 2|] ;
machine_count = 7 ;
cost = [|16, 18, 27, 22, 37, 24, 44|22, 32, 30, 33, 33, 27, 30|29, 32, 28, 27, 31, 47, 37|28, 31, 28, 24, 29, 37, 38|26, 18, 34, 35, 30, 31, 29|18, 31, 31, 20, 41, 47, 38|23, 26, 21, 27, 22, 39, 38|19, 24, 24, 21, 38, 25, 31|16, 21, 26, 27, 34, 32, 50|16, 23, 27, 39, 23, 32, 46|28, 28, 22, 27, 42, 36, 27|21, 22, 30, 33, 25, 41, 30|28, 18, 27, 24, 35, 36, 42|25, 22, 24, 29, 26, 39, 27|21, 32, 21, 31, 37, 38, 39|24, 23, 33, 24, 41, 26, 34|25, 20, 26, 32, 24, 47, 47|26, 18, 32, 25, 27, 35, 42|26, 26, 18, 31, 41, 31, 38|17, 30, 24, 20, 33, 41, 53|29, 25, 30, 21, 35, 43, 41|30, 19, 26, 28, 22, 33, 45|20, 30, 31, 24, 41, 40, 47|30, 32, 22, 21, 24, 24, 48|24, 18, 30, 26, 42, 26, 27|23, 29, 30, 23, 23, 28, 51|27, 17, 20, 21, 34, 31, 35|21, 28, 22, 33, 31, 42, 36|18, 19, 21, 29, 31, 33, 36|31, 33, 21, 20, 35, 26, 48|24, 28, 27, 28, 25, 33, 37|29, 32, 35, 25, 30, 46, 28|22, 26, 26, 33, 36, 34, 43|25, 32, 30, 33, 35, 38, 34|29, 22, 18, 23, 24, 41, 31|] ;
deadline = [33, 33, 33, 33, 33, 33, 33, 33, 33, 33, 33, 33, 33, 33, 33, 33, 33, 33, 33, 33, 33, 33, 33, 33, 33, 33, 33, 33, 33, 33, 33, 33, 33, 33, 33] ;
release = [0, 0, 0, 0, 0, 0, 0, 0, 0, 0, 0, 0, 0, 0, 0, 0, 0, 0, 0, 0, 0, 0, 0, 0, 0, 0, 0, 0, 0, 0, 0, 0, 0, 0, 0] ;
resource = [|1, 1, 1, 1, 1, 1, 1|3, 3, 3, 3, 3, 3, 3|6, 6, 6, 6, 6, 6, 6|1, 1, 1, 1, 1, 1, 1|3, 3, 3, 3, 3, 3, 3|3, 3, 3, 3, 3, 3, 3|2, 2, 2, 2, 2, 2, 2|2, 2, 2, 2, 2, 2, 2|5, 5, 5, 5, 5, 5, 5|3, 3, 3, 3, 3, 3, 3|5, 5, 5, 5, 5, 5, 5|4, 4, 4, 4, 4, 4, 4|1, 1, 1, 1, 1, 1, 1|7, 7, 7, 7, 7, 7, 7|7, 7, 7, 7, 7, 7, 7|3, 3, 3, 3, 3, 3, 3|3, 3, 3, 3, 3, 3, 3|2, 2, 2, 2, 2, 2, 2|1, 1, 1, 1, 1, 1, 1|7, 7, 7, 7, 7, 7, 7|7, 7, 7, 7, 7, 7, 7|7, 7, 7, 7, 7, 7, 7|5, 5, 5, 5, 5, 5, 5|4, 4, 4, 4, 4, 4, 4|8, 8, 8, 8, 8, 8, 8|2, 2, 2, 2, 2, 2, 2|3, 3, 3, 3, 3, 3, 3|7, 7, 7, 7, 7, 7, 7|6, 6, 6, 6, 6, 6, 6|3, 3, 3, 3, 3, 3, 3|3, 3, 3, 3, 3, 3, 3|4, 4, 4, 4, 4, 4, 4|5, 5, 5, 5, 5, 5, 5|8, 8, 8, 8, 8, 8, 8|5, 5, 5, 5, 5, 5, 5|] ;
capacities = [10, 10, 10, 10, 10, 10, 10] ;
